 Minimize
[ 1.0000000000000000 Z0 * Z17  ]
Subject to
c1: [ 1.0000000000000000 Z0 * Z17 -3.0000000000000000 Z18 * Z26 -12.0000000000000000 Z19 * Z23 -8.0000000000000000 Z21 * Z24 -1.0000000000000000 Z21 * Z30 -1.0000000000000000 Z25 * Z28 -5.0000000000000000 Z28 * Z31 -3.0000000000000000 Z28 * Z32 -7.0000000000000000 Z29 * Z30 -10.0000000000000000 Z31 * Z33  ] = 0.000000
c2: [ -7.0000000000000000 Z18 * Z26  + 1.0000000000000000 Z19 * Z23 -8.0000000000000000 Z21 * Z30  + 2.0000000000000000 Z27 * Z28 -12.0000000000000000 Z29 * Z30  + 3.0000000000000000 Z31 * Z33  ] <= -2.000000
c3: [ -5.0000000000000000 Z21 * Z24 -10.0000000000000000 Z21 * Z30  + 7.0000000000000000 Z25 * Z28  + 1.0000000000000000 Z28 * Z31  + 1.0000000000000000 Z28 * Z32  + 1.0000000000000000 Z29 * Z30  ] <= -1.000000
c4: [ -1.0000000000000000 Z21 * Z30  + 1.0000000000000000 Z27 * Z28 -2.0000000000000000 Z28 * Z31 -3.0000000000000000 Z29 * Z30  + 5.0000000000000000 Z31 * Z33  ] <= -1.000000
c5: [ 1.0000000000000000 Z21 * Z30 -1.0000000000000000 Z27 * Z28  + 2.0000000000000000 Z28 * Z31  + 3.0000000000000000 Z29 * Z30 -5.0000000000000000 Z31 * Z33  ] <= 1.000000
c6: [ -2.0000000000000000 Z18 * Z26 -2.0000000000000000 Z19 * Z23 -4.0000000000000000 Z21 * Z30  + 1.0000000000000000 Z25 * Z28 -9.0000000000000000 Z28 * Z31 -5.0000000000000000 Z28 * Z32  ] <= -3.000000
c7: [ -15.0000000000000000 Z18 * Z26 -12.0000000000000000 Z19 * Z23 -7.0000000000000000 Z21 * Z24  + 3.0000000000000000 Z27 * Z28  + 2.0000000000000000 Z28 * Z31  + 6.0000000000000000 Z28 * Z32  + 9.0000000000000000 Z29 * Z30  ] <= -7.000000
c8: [ -10.0000000000000000 Z18 * Z26 -7.0000000000000000 Z19 * Z23 -1.0000000000000000 Z21 * Z24  + 2.0000000000000000 Z21 * Z30 -5.0000000000000000 Z25 * Z28  + 5.0000000000000000 Z29 * Z30 -8.0000000000000000 Z31 * Z33  ] <= -1.000000
ac1: Z0 - 1 = 0
ac2: [ 1.0000000000000000 Z0 * Z18 -1.0000000000000000 Z1 * Z2  ] = 0
ac3: [ 1.0000000000000000 Z0 * Z26 -1.0000000000000000 Z11 * Z12  ] = 0
ac4: [ 1.0000000000000000 Z0 * Z19 -1.0000000000000000 Z3 * Z4  ] = 0
ac5: [ 1.0000000000000000 Z0 * Z23 -1.0000000000000000 Z8 * Z11  ] = 0
ac6: [ 1.0000000000000000 Z0 * Z21 -1.0000000000000000 Z6 * Z7  ] = 0
ac7: [ 1.0000000000000000 Z0 * Z24 -1.0000000000000000 Z8 * Z12  ] = 0
ac8: [ 1.0000000000000000 Z11 * Z24 -1.0000000000000000 Z12 * Z23  ] = 0
ac9: [ 1.0000000000000000 Z0 * Z25 -1.0000000000000000 Z9 * Z10  ] = 0
ac10: [ 1.0000000000000000 Z0 * Z28 -1.0000000000000000 Z14 * Z16  ] = 0
ac11: [ 1.0000000000000000 Z0 * Z30 -1.0000000000000000 Z8 * Z19  ] = 0
ac12: [ 1.0000000000000000 Z11 * Z30 -1.0000000000000000 Z19 * Z23  ] = 0
ac13: [ 1.0000000000000000 Z12 * Z30 -1.0000000000000000 Z19 * Z24  ] = 0
ac14: [ 1.0000000000000000 Z0 * Z20 -1.0000000000000000 Z5 * Z10  ] = 0
ac15: [ 1.0000000000000000 Z0 * Z31 -1.0000000000000000 Z15 * Z20  ] = 0
ac16: [ 1.0000000000000000 Z0 * Z32 -1.0000000000000000 Z9 * Z21  ] = 0
ac17: [ 1.0000000000000000 Z10 * Z32 -1.0000000000000000 Z21 * Z25  ] = 0
ac18: [ 1.0000000000000000 Z0 * Z29 -1.0000000000000000 Z11 * Z18  ] = 0
ac19: [ 1.0000000000000000 Z8 * Z29 -1.0000000000000000 Z18 * Z23  ] = 0
ac20: [ 1.0000000000000000 Z12 * Z29 -1.0000000000000000 Z18 * Z26  ] = 0
ac21: [ 1.0000000000000000 Z0 * Z22 -1.0000000000000000 Z7 * Z9  ] = 0
ac22: [ 1.0000000000000000 Z6 * Z22 -1.0000000000000000 Z9 * Z21  ] = 0
ac23: [ 1.0000000000000000 Z0 * Z33 -1.0000000000000000 Z22 * Z28  ] = 0
ac24: [ 1.0000000000000000 Z6 * Z33 -1.0000000000000000 Z28 * Z32  ] = 0
ac25: [ 1.0000000000000000 Z0 * Z27 -1.0000000000000000 Z13 * Z15  ] = 0
Bounds
1 <= Z0 <= 1
0.0000000000000000 <= Z1 <= 1.0000000000000000
0.0000000000000000 <= Z2 <= 1.0000000000000000
0.0000000000000000 <= Z3 <= 1.0000000000000000
0.0000000000000000 <= Z4 <= 1.0000000000000000
0.0000000000000000 <= Z5 <= 1.0000000000000000
0.0000000000000000 <= Z6 <= 1.0000000000000000
0.0000000000000000 <= Z7 <= 1.0000000000000000
0.0000000000000000 <= Z8 <= 1.0000000000000000
0.0000000000000000 <= Z9 <= 1.0000000000000000
0.0000000000000000 <= Z10 <= 1.0000000000000000
0.0000000000000000 <= Z11 <= 1.0000000000000000
0.0000000000000000 <= Z12 <= 1.0000000000000000
0.0000000000000000 <= Z13 <= 1.0000000000000000
0.0000000000000000 <= Z14 <= 1.0000000000000000
0.0000000000000000 <= Z15 <= 1.0000000000000000
0.0000000000000000 <= Z16 <= 1.0000000000000000
-100000000.0000000000000000 <= Z17 <= 100000000.0000000000000000
0.0000000000000000 <= Z18 <= 1.0000000000000000
0.0000000000000000 <= Z19 <= 1.0000000000000000
0.0000000000000000 <= Z20 <= 1.0000000000000000
0.0000000000000000 <= Z21 <= 1.0000000000000000
0.0000000000000000 <= Z22 <= 1.0000000000000000
0.0000000000000000 <= Z23 <= 1.0000000000000000
0.0000000000000000 <= Z24 <= 1.0000000000000000
0.0000000000000000 <= Z25 <= 1.0000000000000000
0.0000000000000000 <= Z26 <= 1.0000000000000000
0.0000000000000000 <= Z27 <= 1.0000000000000000
0.0000000000000000 <= Z28 <= 1.0000000000000000
0.0000000000000000 <= Z29 <= 1.0000000000000000
0.0000000000000000 <= Z30 <= 1.0000000000000000
0.0000000000000000 <= Z31 <= 1.0000000000000000
0.0000000000000000 <= Z32 <= 1.0000000000000000
0.0000000000000000 <= Z33 <= 1.0000000000000000
Binaries
Z1 Z2 Z3 Z4 Z5 Z6 Z7 Z8 Z9 Z10 Z11 Z12 Z13 Z14 Z15 Z16 
End